data;

param:
I: Value :=
0    42
1    13
2    93
3    88
4    20
5    32
6    44
7    63
8    0
9    10
10    55
11    57
12    89
13    47
14    76
15    2
16    72
17    84
18    37
19    33
20    58
21    68
22    50
23    64
24    10
25    82
26    56
27    53
28    64
29    44
30    34
31    6
32    57
33    79
34    94
35    77
36    63
37    38
38    40
39    15
40    1
41    47
42    73;

param TargetSum := 1790;
